30086.98,43.41,47.81
31827.93,41.04,45.19
28132.8,46.43,51.13
30613.04,42.67,46.99
30364.51,43.02,47.37
27312.01,47.82,52.67
32110.63,40.68,44.8
28202.36,46.31,51.0
24575.85,53.15,58.53
29478.61,44.31,48.8
30553.92,42.75,47.08
28420.0,45.96,50.61
28256.11,46.23,50.91
28900.71,45.2,49.77
29343.4,44.51,49.02
25759.66,50.71,55.84
29519.83,44.25,48.73
27707.97,47.14,51.91
30097.45,43.4,47.79
29467.84,44.33,48.81
